* ENCODING=ISO-8859-1
NAME          CPLEX
ROWS
 N  obj1    
 G  c1      
 G  c2      
 G  c3      
 G  c4      
 G  c5      
 G  c6      
 G  c7      
 G  c8      
 G  c9      
 G  c10     
 G  c11     
 G  c12     
 G  c13     
 G  c14     
 G  c15     
 G  c16     
 G  c17     
 G  c18     
 G  c19     
 G  c20     
 G  c21     
 G  c22     
 G  c23     
 G  c24     
 G  c25     
 G  c26     
 G  c27     
 G  c28     
 G  c29     
 G  c30     
 G  c31     
 G  c32     
 G  c33     
 G  c34     
 G  c35     
 G  c36     
 G  c37     
 G  c38     
 G  c39     
 G  c40     
COLUMNS
    MARK0000  'MARKER'                 'INTORG'
    x1        obj1                            1
    x1        c5                            598
    x1        c6                            305
    x1        c9                            435
    x1        c17                           484
    x1        c33                           805
    x1        c37                           943
    x2        obj1                            1
    x2        c14                           159
    x2        c37                           528
    x3        obj1                            1
    x3        c18                           118
    x3        c20                           545
    x3        c22                           896
    x3        c34                           335
    x4        obj1                            1
    x4        c11                           673
    x4        c17                           358
    x4        c18                           670
    x4        c20                           700
    x5        obj1                            1
    x5        c6                            876
    x5        c7                            673
    x5        c33                           416
    x5        c36                           192
    x6        obj1                            1
    x6        c8                            907
    x6        c9                            752
    x6        c17                           258
    x6        c37                           219
    x7        obj1                            1
    x7        c2                            292
    x7        c8                            872
    x7        c10                           806
    x7        c12                           571
    x7        c15                           214
    x7        c24                           366
    x7        c28                           565
    x7        c36                           136
    x8        obj1                            1
    x8        c2                            699
    x8        c11                           581
    x8        c18                           542
    x8        c28                           614
    x8        c35                           123
    x9        obj1                            1
    x9        c6                            768
    x9        c9                            745
    x9        c18                           720
    x9        c33                           709
    x10       obj1                            1
    x10       c10                           714
    x10       c28                           940
    x10       c30                           348
    x10       c35                           298
    x10       c36                           752
    x11       obj1                            1
    x11       c1                            176
    x11       c9                            899
    x11       c10                           955
    x11       c15                           144
    x11       c22                           959
    x11       c25                           807
    x11       c37                           749
    x12       obj1                            1
    x12       c1                            618
    x12       c6                            546
    x12       c9                            347
    x12       c11                           759
    x12       c27                           896
    x12       c36                           856
    x13       obj1                            1
    x14       obj1                            1
    x14       c9                            617
    x14       c12                           288
    x14       c16                           134
    x14       c22                           660
    x15       obj1                            1
    x15       c7                            633
    x15       c12                           630
    x15       c14                           123
    x15       c33                           413
    x15       c34                           813
    x16       obj1                            1
    x16       c10                           347
    x16       c15                           904
    x16       c22                           215
    x16       c28                           777
    x17       obj1                            1
    x17       c1                            963
    x18       obj1                            1
    x18       c4                            619
    x18       c14                           135
    x18       c28                           476
    x18       c32                           296
    x18       c35                           434
    x18       c36                           942
    x19       obj1                            1
    x19       c4                            236
    x19       c29                           456
    x20       obj1                            1
    x20       c24                           509
    x20       c36                           652
    x21       obj1                            1
    x21       c2                            561
    x21       c17                           723
    x21       c28                           961
    x22       obj1                            1
    x22       c2                            464
    x22       c17                           632
    x22       c28                           974
    x22       c31                           134
    x22       c37                           223
    x23       obj1                            1
    x23       c10                           941
    x23       c11                           646
    x23       c21                           987
    x23       c26                           119
    x23       c27                           388
    x24       obj1                            1
    x24       c7                            633
    x24       c10                           882
    x25       obj1                            1
    x25       c12                           321
    x25       c17                           630
    x25       c19                           602
    x25       c25                           164
    x26       obj1                            1
    x26       c5                            415
    x27       obj1                            1
    x27       c5                            995
    x27       c11                           849
    x27       c12                           446
    x27       c13                           816
    x27       c15                           926
    x27       c16                           898
    x27       c38                           735
    x28       obj1                            1
    x28       c30                           606
    x28       c36                           649
    x29       obj1                            1
    x29       c22                           970
    x29       c23                           301
    x29       c24                           294
    x29       c31                           680
    x30       obj1                            1
    x30       c13                           527
    x30       c17                           690
    x30       c28                           698
    x30       c31                           408
    x30       c35                           693
    x31       obj1                            1
    x31       c25                           920
    x31       c29                           654
    x31       c30                           616
    x31       c40                           769
    x32       obj1                            1
    x32       c1                            603
    x32       c5                            584
    x32       c14                           622
    x32       c18                           409
    x32       c21                           140
    x33       obj1                            1
    x33       c6                            553
    x33       c25                           158
    x33       c34                           163
    x34       obj1                            1
    x34       c2                            985
    x34       c7                            431
    x34       c14                           630
    x34       c20                           347
    x34       c24                           612
    x34       c30                           334
    x35       obj1                            1
    x35       c12                           113
    x35       c30                           972
    x35       c33                           567
    x36       obj1                            1
    x36       c20                           178
    x37       obj1                            1
    x37       c4                            625
    x37       c16                           892
    x37       c20                           759
    x38       obj1                            1
    x38       c3                            488
    x38       c10                           320
    x38       c14                           361
    x38       c18                           114
    x38       c35                           530
    x39       obj1                            1
    x39       c3                            901
    x39       c14                           174
    x39       c21                           591
    x39       c23                           558
    x39       c31                           103
    x39       c32                           216
    x39       c39                           467
    x40       obj1                            1
    x40       c11                           805
    x40       c19                           427
    x40       c34                           598
    x41       obj1                            1
    x41       c1                            975
    x41       c15                           204
    x41       c23                           696
    x41       c28                           718
    x42       obj1                            1
    x42       c15                           114
    x42       c20                           130
    x42       c23                           439
    x42       c32                           353
    x43       obj1                            1
    x43       c7                            751
    x43       c25                           325
    x43       c29                           944
    x43       c37                           666
    x44       obj1                            1
    x44       c17                           966
    x44       c21                           405
    x44       c22                           563
    x45       obj1                            1
    x45       c3                            290
    x45       c4                            106
    x45       c5                            764
    x45       c22                           396
    x45       c26                           557
    x45       c37                          1000
    x45       c40                           571
    x46       obj1                            1
    x46       c7                            835
    x46       c9                            736
    x46       c13                           656
    x46       c33                           469
    x46       c36                           614
    x46       c39                           103
    x47       obj1                            1
    x47       c3                            148
    x47       c8                            793
    x47       c15                           543
    x47       c34                           438
    x48       obj1                            1
    x48       c15                           322
    x48       c30                           466
    x49       obj1                            1
    x49       c12                           441
    x49       c21                           369
    x49       c33                           391
    x50       obj1                            1
    x50       c6                            852
    x50       c10                           646
    x50       c15                           827
    x50       c18                           374
    x51       obj1                            1
    x51       c24                           939
    x51       c37                           835
    x51       c40                           487
    x52       obj1                            1
    x52       c13                           889
    x52       c17                           197
    x52       c32                           157
    x53       obj1                            1
    x53       c13                           656
    x53       c31                           869
    x53       c35                           259
    x53       c40                           646
    x54       obj1                            1
    x54       c8                            355
    x54       c23                           931
    x54       c28                           747
    x54       c34                           761
    x55       obj1                            1
    x55       c3                            784
    x55       c12                           929
    x55       c17                           233
    x55       c19                           909
    x55       c25                           200
    x56       obj1                            1
    x56       c4                            816
    x56       c17                           525
    x56       c20                           915
    x56       c26                           908
    x57       obj1                            1
    x57       c11                           724
    x57       c14                           398
    x57       c26                           785
    x57       c28                           220
    x57       c39                           588
    x58       obj1                            1
    x58       c3                            617
    x58       c14                           748
    x58       c31                           234
    x58       c34                           294
    x58       c39                           407
    x59       obj1                            1
    x59       c3                            688
    x59       c12                           694
    x59       c17                           751
    x59       c39                           642
    x60       obj1                            1
    x60       c9                            427
    x60       c24                           194
    x60       c40                           143
    x61       obj1                            1
    x61       c1                            824
    x61       c7                            495
    x61       c20                           664
    x61       c25                           364
    x62       obj1                            1
    x62       c31                           679
    x62       c35                           172
    x63       obj1                            1
    x63       c5                            559
    x63       c9                            478
    x64       obj1                            1
    x64       c1                            558
    x64       c16                           546
    x64       c22                           453
    x64       c25                           177
    x64       c27                           307
    x64       c35                           180
    x65       obj1                            1
    x65       c5                            450
    x65       c13                           720
    x65       c38                           519
    x66       obj1                            1
    x66       c12                           549
    x66       c18                           461
    x66       c30                           707
    x66       c31                           116
    x67       obj1                            1
    x67       c4                            229
    x67       c8                            877
    x67       c12                           951
    x67       c22                           830
    x68       obj1                            1
    x68       c11                           179
    x68       c14                           972
    x68       c16                           307
    x68       c36                           471
    x69       obj1                            1
    x69       c5                            691
    x69       c10                           835
    x69       c11                           177
    x69       c14                           695
    x69       c21                           412
    x69       c37                           416
    x70       obj1                            1
    x70       c27                           985
    x71       obj1                            1
    x71       c1                            740
    x71       c2                            571
    x71       c9                            384
    x71       c18                           884
    x71       c19                           550
    x71       c22                           929
    x71       c34                           784
    x72       obj1                            1
    x72       c7                            743
    x72       c8                            474
    x72       c39                           102
    x73       obj1                            1
    x73       c3                            578
    x73       c4                            430
    x73       c10                           506
    x73       c13                           955
    x73       c24                           687
    x73       c29                           356
    x73       c34                           969
    x73       c40                           656
    x74       obj1                            1
    x74       c10                           371
    x74       c18                           154
    x74       c28                           824
    x74       c30                           893
    x74       c39                           526
    x74       c40                           724
    x75       obj1                            1
    x75       c12                           478
    x75       c22                           410
    x75       c23                           855
    x75       c37                           337
    x75       c39                           998
    x76       obj1                            1
    x76       c14                           716
    x76       c23                           716
    x76       c26                           604
    x77       obj1                            1
    x77       c2                            820
    x77       c9                            493
    x77       c21                           732
    x77       c30                           210
    x77       c40                           939
    x78       obj1                            1
    x78       c2                            314
    x78       c8                            593
    x78       c18                           224
    x78       c20                           116
    x78       c38                           304
    x78       c40                           231
    x79       obj1                            1
    x79       c4                            691
    x79       c5                            305
    x79       c9                            142
    x79       c15                           728
    x79       c25                           414
    x79       c38                           270
    x80       obj1                            1
    x80       c4                            925
    x80       c5                            307
    x80       c18                           540
    x80       c22                           712
    x80       c24                           806
    x80       c32                           822
    MARK0001  'MARKER'                 'INTEND'
RHS
    rhs       c1                           2729
    rhs       c2                           2353
    rhs       c3                           2247
    rhs       c4                           2339
    rhs       c5                           2834
    rhs       c6                           1950
    rhs       c7                           2597
    rhs       c8                           2436
    rhs       c9                           3228
    rhs       c10                          3662
    rhs       c11                          2697
    rhs       c12                          3206
    rhs       c13                          2610
    rhs       c14                          2867
    rhs       c15                          2463
    rhs       c16                          1389
    rhs       c17                          3224
    rhs       c18                          2605
    rhs       c19                          1244
    rhs       c20                          2177
    rhs       c21                          1818
    rhs       c22                          3997
    rhs       c23                          2248
    rhs       c24                          2204
    rhs       c25                          1765
    rhs       c26                          1487
    rhs       c27                          1288
    rhs       c28                          4257
    rhs       c29                          1205
    rhs       c30                          2576
    rhs       c31                          1612
    rhs       c32                           922
    rhs       c33                          1885
    rhs       c34                          2578
    rhs       c35                          1345
    rhs       c36                          2632
    rhs       c37                          2958
    rhs       c38                           914
    rhs       c39                          1917
    rhs       c40                          2583
BOUNDS
 LI bnd       x1        0
 LI bnd       x2        0
 LI bnd       x3        0
 LI bnd       x4        0
 LI bnd       x5        0
 LI bnd       x6        0
 LI bnd       x7        0
 LI bnd       x8        0
 LI bnd       x9        0
 LI bnd       x10       0
 LI bnd       x11       0
 LI bnd       x12       0
 LI bnd       x13       0
 LI bnd       x14       0
 LI bnd       x15       0
 LI bnd       x16       0
 LI bnd       x17       0
 LI bnd       x18       0
 LI bnd       x19       0
 LI bnd       x20       0
 LI bnd       x21       0
 LI bnd       x22       0
 LI bnd       x23       0
 LI bnd       x24       0
 LI bnd       x25       0
 LI bnd       x26       0
 LI bnd       x27       0
 LI bnd       x28       0
 LI bnd       x29       0
 LI bnd       x30       0
 LI bnd       x31       0
 LI bnd       x32       0
 LI bnd       x33       0
 LI bnd       x34       0
 LI bnd       x35       0
 LI bnd       x36       0
 LI bnd       x37       0
 LI bnd       x38       0
 LI bnd       x39       0
 LI bnd       x40       0
 LI bnd       x41       0
 LI bnd       x42       0
 LI bnd       x43       0
 LI bnd       x44       0
 LI bnd       x45       0
 LI bnd       x46       0
 LI bnd       x47       0
 LI bnd       x48       0
 LI bnd       x49       0
 LI bnd       x50       0
 LI bnd       x51       0
 LI bnd       x52       0
 LI bnd       x53       0
 LI bnd       x54       0
 LI bnd       x55       0
 LI bnd       x56       0
 LI bnd       x57       0
 LI bnd       x58       0
 LI bnd       x59       0
 LI bnd       x60       0
 LI bnd       x61       0
 LI bnd       x62       0
 LI bnd       x63       0
 LI bnd       x64       0
 LI bnd       x65       0
 LI bnd       x66       0
 LI bnd       x67       0
 LI bnd       x68       0
 LI bnd       x69       0
 LI bnd       x70       0
 LI bnd       x71       0
 LI bnd       x72       0
 LI bnd       x73       0
 LI bnd       x74       0
 LI bnd       x75       0
 LI bnd       x76       0
 LI bnd       x77       0
 LI bnd       x78       0
 LI bnd       x79       0
 LI bnd       x80       0
ENDATA
